%chk=16_4.chk
%mem= 4gb
%nproc= 8
# mp2/6-311g(d,p)

Title Card 

0 1
O -2.59281500 2.04864100 1.75295400
H -2.68656900 1.21334900 2.23726400
H -3.16649700 1.93707200 0.97345400
O 2.58706600 1.78191300 -2.10152800
H 3.17065200 1.01166000 -1.98897400
H 2.67009500 2.26682500 -1.26546200
O -0.05662800 -1.68484000 -0.93196400
H 0.01058400 -0.78077900 -1.31973100
H -0.91609600 -2.02750000 -1.24453100
O -2.60297800 0.59270700 -2.55700400
H -1.66036200 0.81151600 -2.42692600
H -2.63549500 -0.37583000 -2.49623600
O 2.59509100 -2.52997500 -0.65236500
H 1.65378600 -2.38134400 -0.86004300
H 2.64027700 -2.46527200 0.31535700
O 2.43277800 2.73791400 0.65635000
H 1.49512900 2.50622300 0.84937400
H 2.57957400 3.60164500 1.05268400
O 0.06225800 -0.96385100 1.68549200
H 0.93861900 -1.26463800 1.99841800
H -0.02012600 -1.32260600 0.77065000
O 0.02889900 0.91681300 -1.72404500
H -0.05793500 1.29867400 -0.82581400
H 0.91396800 1.22948700 -2.02280400
O -4.02740800 -1.26817400 0.40808100
H -3.52009400 -1.17156100 1.23279200
H -4.24843800 -0.35527000 0.15088800
O 4.00163400 0.44559500 1.21207800
H 4.23767700 0.19441500 0.30129300
H 3.50219200 1.27649500 1.11572300
O 4.15833600 -0.50783200 -1.44278600
H 4.89392800 -0.83326000 -1.96973600
H 3.59348600 -1.29836800 -1.24361700
O -0.03558000 1.70523700 0.93612900
H -0.93571800 1.97621000 1.23846900
H 0.06904600 0.80042000 1.29724100
O -4.13700900 1.39547900 -0.53482000
H -4.87016700 1.92314300 -0.86479400
H -3.57587200 1.18190200 -1.32722800
O -2.67670400 -2.17453300 -1.70816700
H -3.20532700 -1.93564500 -0.90333900
H -3.09473100 -2.95538300 -2.08248800
O 2.69163100 -1.68051900 2.11609000
H 3.20043900 -0.86307600 1.86696400
H 3.13973500 -2.05086300 2.88210600
O -2.43275800 -0.70590100 2.70196400
H -1.49603900 -0.89686400 2.47133500
H -2.58622200 -1.12018300 3.55603700
