%chk=20_4.chk
%mem= 4gb
%nproc= 8
# mp2/aug-cc-pvdz

Title Card 

0 1
O -6.21534000 4.54332000 11.67136000
H -5.77207000 3.72499000 11.92869000
H -6.83590000 4.29270000 10.93272000
O -5.21429000 6.78395000 10.24034000
H -5.46618000 7.54598000 10.79431000
H -5.37957000 6.00860000 10.81262000
O -8.84673000 9.00696000 10.69199000
H -7.93535000 8.93300000 11.06425000
H -9.20587000 9.78906000 11.15402000
O -7.52018000 6.40498000 13.29468000
H -8.41275000 6.40946000 12.88285000
H -7.06206000 5.65096000 12.86804000
O -9.95845000 6.85844000 12.01308000
H -10.28724000 6.21865000 11.35116000
H -9.61260000 7.60422000 11.46430000
O -7.57324000 12.77177000 15.50086000
H -7.89575000 12.60144000 16.40570000
H -8.37177000 13.06449000 15.02470000
O -7.81012000 4.08661000 9.58342000
H -7.44380000 4.69185000 8.90980000
H -8.74246000 4.37108000 9.66953000
O -6.67544000 6.22039000 8.08034000
H -6.08769000 6.50484000 8.83222000
H -6.11554000 6.22844000 7.29433000
O -8.83201000 12.04517000 17.99559000
H -8.61835000 12.33915000 18.88950000
H -8.83564000 11.05363000 18.02846000
O -10.15731000 13.09763000 14.18730000
H -10.64603000 12.80757000 15.00435000
H -10.59258000 13.90672000 13.89211000
O -11.61944000 9.39574000 16.42562000
H -11.35140000 9.03003000 15.54826000
H -12.46586000 8.97860000 16.63094000
O -11.21685000 12.22650000 16.48499000
H -11.45467000 11.27965000 16.46282000
H -10.47574000 12.26875000 17.12198000
O -10.50405000 8.60753000 14.09975000
H -10.24545000 9.41488000 13.58506000
H -10.57410000 7.89586000 13.42980000
O -9.12699000 9.37228000 17.86599000
H -10.03478000 9.27894000 17.52117000
H -8.59429000 8.88677000 17.20765000
O -7.08157000 10.44409000 14.11781000
H -7.34220000 9.72800000 14.73644000
H -7.08530000 11.26991000 14.65618000
O -6.47569000 8.61007000 12.03340000
H -6.36886000 9.33977000 12.67246000
H -6.80081000 7.85160000 12.57767000
O -9.22877000 7.37179000 8.38729000
H -8.31963000 7.08671000 8.16500000
H -9.10580000 8.10204000 9.02327000
O -8.10840000 8.22330000 15.46359000
H -8.97911000 8.27283000 15.00725000
H -7.69813000 7.43947000 15.05783000
O -10.35892000 5.32752000 9.68815000
H -11.13294000 4.96471000 9.23948000
H -10.03839000 6.08169000 9.12048000
O -9.48748000 10.76196000 12.80645000
H -8.59257000 10.69673000 13.22352000
H -9.82649000 11.62288000 13.12906000
